N = 14;
H = 5;
T = 2;

avail = array3d(1..N, 1..H, 1..T, [4, 6, 3, 5, 7, 8, 10, 2, 3, 0, 8, 2, 6, 6, 10, 9, 8, 6, 6, 9, 8, 5, 4, 10, 9, 10, 3, 8, 8, 0, 8, 8, 6, 1, 10, 3, 8, 5, 9, 10, 10, 10, 3, 1, 4, 0, 6, 5, 9, 0, 6, 4, 9, 10, 2, 2, 2, 4, 4, 10, 7, 9, 8, 0, 3, 3, 1, 6, 4, 0, 2, 7, 5, 8, 5, 4, 7, 7, 3, 8, 1, 1, 5, 0, 4, 2, 4, 6, 8, 9, 2, 2, 9, 2, 9, 2, 9, 9, 10, 6, 4, 6, 3, 5, 8, 0, 3, 5, 7, 8, 5, 4, 4, 6, 10, 1, 5, 6, 7, 7, 8, 1, 10, 2, 10, 2, 6, 4, 9, 2, 2, 3, 3, 4, 9, 4, 1, 0, 3, 6]);

r = array2d(1..H, 1..T, [2, 2, 4, 1, 8, 4, 7, 4, 4, 4]);
